dimacs_exports/research_5vars_30clauses_seed300.cnf
c DIMACS CNF format
c Generated from: research_5vars_30clauses_seed300.md
c Batch export from 
c Generated on: 2025-07-15T10:21:56.962
c
p cnf 5 30
-5 -4 -5 0
-3 2 -5 0
-4 -1 -2 0
-4 5 -2 0
-2 5 -4 0
-5 5 -2 0
-2 -5 -1 0
5 3 1 0
3 1 -2 0
3 -5 -2 0
-3 -2 1 0
4 5 -5 0
-5 1 -1 0
-2 4 -5 0
-1 4 -1 0
-1 -4 -1 0
-4 5 -4 0
2 3 -1 0
1 -1 -5 0
-2 -1 5 0
-1 -3 -3 0
-1 3 -2 0
2 1 -1 0
2 -5 -5 0
-4 3 5 0
1 4 -3 0
-2 3 -3 0
3 -5 -1 0
-1 5 3 0
-4 5 2 0
