research/research_5vars_30clauses_seed300.txt
4 6 2
7 10 2
8 9 6
4 7 1
1 9 1
2 8 3
2 10 4
3 9 1
4 5 4
1 3 1
9 10 2
5 9 3
1 4 2
2 6 2
2 7 2
8 10 2
4 9 4
1 10 2
1 2 3
2 5 4
3 8 1
3 10 3
1 6 2
7 9 1
5 8 1
5 10 2
1 7 1
3 6 1
2 9 2
6 10 1
5 6 1
1 5 2
4 8 3
4 10 4
3 5 1
2 3 2
2 4 4
6 7 1